c cnf generated file for haplotype inference
c author: Fernando Augusto Fernandes Braz
c contact: fernando.afb@gmail.com
p cnf 188 609
-1 0
-37 -61 0
-37 -69 0
-40 -62 0
-40 -70 0
-43 -63 0
-43 -71 0
-46 -64 0
-46 -72 0
-49 -65 0
-49 -73 0
-52 -66 0
-52 -74 0
-55 -67 0
-55 -75 0
-58 -68 0
-58 -76 0
 4 0
 38 -61 0
 38 -69 0
 41 -62 0
 41 -70 0
 44 -63 0
 44 -71 0
 47 -64 0
 47 -72 0
 50 -65 0
 50 -73 0
 53 -66 0
 53 -74 0
 56 -67 0
 56 -75 0
 59 -68 0
 59 -76 0
 7 0
 39 -61 0
 39 -69 0
 42 -62 0
 42 -70 0
 45 -63 0
 45 -71 0
 48 -64 0
 48 -72 0
 51 -65 0
 51 -73 0
 54 -66 0
 54 -74 0
 57 -67 0
 57 -75 0
 60 -68 0
 60 -76 0
-10 0
-37 -77 0
-37 -85 0
-40 -78 0
-40 -86 0
-43 -79 0
-43 -87 0
-46 -80 0
-46 -88 0
-49 -81 0
-49 -89 0
-52 -82 0
-52 -90 0
-55 -83 0
-55 -91 0
-58 -84 0
-58 -92 0
 14  15 0
-14 -15 0
 38 -14 -77 0
-38  14 -77 0
 38 -15 -85 0
-38  15 -85 0
 41 -14 -78 0
-41  14 -78 0
 41 -15 -86 0
-41  15 -86 0
 44 -14 -79 0
-44  14 -79 0
 44 -15 -87 0
-44  15 -87 0
 47 -14 -80 0
-47  14 -80 0
 47 -15 -88 0
-47  15 -88 0
 50 -14 -81 0
-50  14 -81 0
 50 -15 -89 0
-50  15 -89 0
 53 -14 -82 0
-53  14 -82 0
 53 -15 -90 0
-53  15 -90 0
 56 -14 -83 0
-56  14 -83 0
 56 -15 -91 0
-56  15 -91 0
 59 -14 -84 0
-59  14 -84 0
 59 -15 -92 0
-59  15 -92 0
 77 -141 0
-77  141  85 -149 0
-77  141  85 -149 0
-85  149 0
-141 -77 0
-149 -85 0
-142 -78 0
-150 -86 0
-143 -79 0
-151 -87 0
-144 -80 0
-152 -88 0
-145 -81 0
-153 -89 0
-146 -82 0
-154 -90 0
-147 -83 0
-155 -91 0
-148 -84 0
-156 -92 0
 77  141 -142 0
-77  142 0
-141  142 0
 85  149 -150 0
-85  150 0
-149  150 0
 78  142 -143 0
-78  143 0
-142  143 0
 86  150 -151 0
-86  151 0
-150  151 0
 79  143 -144 0
-79  144 0
-143  144 0
 87  151 -152 0
-87  152 0
-151  152 0
 80  144 -145 0
-80  145 0
-144  145 0
 88  152 -153 0
-88  153 0
-152  153 0
 81  145 -146 0
-81  146 0
-145  146 0
 89  153 -154 0
-89  154 0
-153  154 0
 82  146 -147 0
-82  147 0
-146  147 0
 90  154 -155 0
-90  155 0
-154  155 0
 83  147 -148 0
-83  148 0
-147  148 0
 91  155 -156 0
-91  156 0
-155  156 0
 148 0
 156 0
 16 0
 39 -77 0
 39 -85 0
 42 -78 0
 42 -86 0
 45 -79 0
 45 -87 0
 48 -80 0
 48 -88 0
 51 -81 0
 51 -89 0
 54 -82 0
 54 -90 0
 57 -83 0
 57 -91 0
 60 -84 0
 60 -92 0
 19 0
 37 -93 0
 37 -101 0
 40 -94 0
 40 -102 0
 43 -95 0
 43 -103 0
 46 -96 0
 46 -104 0
 49 -97 0
 49 -105 0
 52 -98 0
 52 -106 0
 55 -99 0
 55 -107 0
 58 -100 0
 58 -108 0
 23  24 0
-23 -24 0
 38 -23 -93 0
-38  23 -93 0
 38 -24 -101 0
-38  24 -101 0
 41 -23 -94 0
-41  23 -94 0
 41 -24 -102 0
-41  24 -102 0
 44 -23 -95 0
-44  23 -95 0
 44 -24 -103 0
-44  24 -103 0
 47 -23 -96 0
-47  23 -96 0
 47 -24 -104 0
-47  24 -104 0
 50 -23 -97 0
-50  23 -97 0
 50 -24 -105 0
-50  24 -105 0
 53 -23 -98 0
-53  23 -98 0
 53 -24 -106 0
-53  24 -106 0
 56 -23 -99 0
-56  23 -99 0
 56 -24 -107 0
-56  24 -107 0
 59 -23 -100 0
-59  23 -100 0
 59 -24 -108 0
-59  24 -108 0
 93 -157 0
-93  157  101 -165 0
-93  157  101 -165 0
-101  165 0
-157 -93 0
-165 -101 0
-158 -94 0
-166 -102 0
-159 -95 0
-167 -103 0
-160 -96 0
-168 -104 0
-161 -97 0
-169 -105 0
-162 -98 0
-170 -106 0
-163 -99 0
-171 -107 0
-164 -100 0
-172 -108 0
 93  157 -158 0
-93  158 0
-157  158 0
 101  165 -166 0
-101  166 0
-165  166 0
 94  158 -159 0
-94  159 0
-158  159 0
 102  166 -167 0
-102  167 0
-166  167 0
 95  159 -160 0
-95  160 0
-159  160 0
 103  167 -168 0
-103  168 0
-167  168 0
 96  160 -161 0
-96  161 0
-160  161 0
 104  168 -169 0
-104  169 0
-168  169 0
 97  161 -162 0
-97  162 0
-161  162 0
 105  169 -170 0
-105  170 0
-169  170 0
 98  162 -163 0
-98  163 0
-162  163 0
 106  170 -171 0
-106  171 0
-170  171 0
 99  163 -164 0
-99  164 0
-163  164 0
 107  171 -172 0
-107  172 0
-171  172 0
 164 0
 172 0
 26  27 0
-26 -27 0
 39 -26 -93 0
-39  26 -93 0
 39 -27 -101 0
-39  27 -101 0
 42 -26 -94 0
-42  26 -94 0
 42 -27 -102 0
-42  27 -102 0
 45 -26 -95 0
-45  26 -95 0
 45 -27 -103 0
-45  27 -103 0
 48 -26 -96 0
-48  26 -96 0
 48 -27 -104 0
-48  27 -104 0
 51 -26 -97 0
-51  26 -97 0
 51 -27 -105 0
-51  27 -105 0
 54 -26 -98 0
-54  26 -98 0
 54 -27 -106 0
-54  27 -106 0
 57 -26 -99 0
-57  26 -99 0
 57 -27 -107 0
-57  27 -107 0
 60 -26 -100 0
-60  26 -100 0
 60 -27 -108 0
-60  27 -108 0
 93 -157 0
-93  157  101 -165 0
-93  157  101 -165 0
-101  165 0
-157 -93 0
-165 -101 0
-158 -94 0
-166 -102 0
-159 -95 0
-167 -103 0
-160 -96 0
-168 -104 0
-161 -97 0
-169 -105 0
-162 -98 0
-170 -106 0
-163 -99 0
-171 -107 0
-164 -100 0
-172 -108 0
 93  157 -158 0
-93  158 0
-157  158 0
 101  165 -166 0
-101  166 0
-165  166 0
 94  158 -159 0
-94  159 0
-158  159 0
 102  166 -167 0
-102  167 0
-166  167 0
 95  159 -160 0
-95  160 0
-159  160 0
 103  167 -168 0
-103  168 0
-167  168 0
 96  160 -161 0
-96  161 0
-160  161 0
 104  168 -169 0
-104  169 0
-168  169 0
 97  161 -162 0
-97  162 0
-161  162 0
 105  169 -170 0
-105  170 0
-169  170 0
 98  162 -163 0
-98  163 0
-162  163 0
 106  170 -171 0
-106  171 0
-170  171 0
 99  163 -164 0
-99  164 0
-163  164 0
 107  171 -172 0
-107  172 0
-171  172 0
 164 0
 172 0
 29  30 0
-29 -30 0
 37 -29 -109 0
-37  29 -109 0
 37 -30 -117 0
-37  30 -117 0
 40 -29 -110 0
-40  29 -110 0
 40 -30 -118 0
-40  30 -118 0
 43 -29 -111 0
-43  29 -111 0
 43 -30 -119 0
-43  30 -119 0
 46 -29 -112 0
-46  29 -112 0
 46 -30 -120 0
-46  30 -120 0
 49 -29 -113 0
-49  29 -113 0
 49 -30 -121 0
-49  30 -121 0
 52 -29 -114 0
-52  29 -114 0
 52 -30 -122 0
-52  30 -122 0
 55 -29 -115 0
-55  29 -115 0
 55 -30 -123 0
-55  30 -123 0
 58 -29 -116 0
-58  29 -116 0
 58 -30 -124 0
-58  30 -124 0
 109 -173 0
-109  173  117 -181 0
-109  173  117 -181 0
-117  181 0
-173 -109 0
-181 -117 0
-174 -110 0
-182 -118 0
-175 -111 0
-183 -119 0
-176 -112 0
-184 -120 0
-177 -113 0
-185 -121 0
-178 -114 0
-186 -122 0
-179 -115 0
-187 -123 0
-180 -116 0
-188 -124 0
 109  173 -174 0
-109  174 0
-173  174 0
 117  181 -182 0
-117  182 0
-181  182 0
 110  174 -175 0
-110  175 0
-174  175 0
 118  182 -183 0
-118  183 0
-182  183 0
 111  175 -176 0
-111  176 0
-175  176 0
 119  183 -184 0
-119  184 0
-183  184 0
 112  176 -177 0
-112  177 0
-176  177 0
 120  184 -185 0
-120  185 0
-184  185 0
 113  177 -178 0
-113  178 0
-177  178 0
 121  185 -186 0
-121  186 0
-185  186 0
 114  178 -179 0
-114  179 0
-178  179 0
 122  186 -187 0
-122  187 0
-186  187 0
 115  179 -180 0
-115  180 0
-179  180 0
 123  187 -188 0
-123  188 0
-187  188 0
 180 0
 188 0
 31 0
 38 -109 0
 38 -117 0
 41 -110 0
 41 -118 0
 44 -111 0
 44 -119 0
 47 -112 0
 47 -120 0
 50 -113 0
 50 -121 0
 53 -114 0
 53 -122 0
 56 -115 0
 56 -123 0
 59 -116 0
 59 -124 0
 35  36 0
-35 -36 0
 39 -35 -109 0
-39  35 -109 0
 39 -36 -117 0
-39  36 -117 0
 42 -35 -110 0
-42  35 -110 0
 42 -36 -118 0
-42  36 -118 0
 45 -35 -111 0
-45  35 -111 0
 45 -36 -119 0
-45  36 -119 0
 48 -35 -112 0
-48  35 -112 0
 48 -36 -120 0
-48  36 -120 0
 51 -35 -113 0
-51  35 -113 0
 51 -36 -121 0
-51  36 -121 0
 54 -35 -114 0
-54  35 -114 0
 54 -36 -122 0
-54  36 -122 0
 57 -35 -115 0
-57  35 -115 0
 57 -36 -123 0
-57  36 -123 0
 60 -35 -116 0
-60  35 -116 0
 60 -36 -124 0
-60  36 -124 0
 109 -173 0
-109  173  117 -181 0
-109  173  117 -181 0
-117  181 0
-173 -109 0
-181 -117 0
-174 -110 0
-182 -118 0
-175 -111 0
-183 -119 0
-176 -112 0
-184 -120 0
-177 -113 0
-185 -121 0
-178 -114 0
-186 -122 0
-179 -115 0
-187 -123 0
-180 -116 0
-188 -124 0
 109  173 -174 0
-109  174 0
-173  174 0
 117  181 -182 0
-117  182 0
-181  182 0
 110  174 -175 0
-110  175 0
-174  175 0
 118  182 -183 0
-118  183 0
-182  183 0
 111  175 -176 0
-111  176 0
-175  176 0
 119  183 -184 0
-119  184 0
-183  184 0
 112  176 -177 0
-112  177 0
-176  177 0
 120  184 -185 0
-120  185 0
-184  185 0
 113  177 -178 0
-113  178 0
-177  178 0
 121  185 -186 0
-121  186 0
-185  186 0
 114  178 -179 0
-114  179 0
-178  179 0
 122  186 -187 0
-122  187 0
-186  187 0
 115  179 -180 0
-115  180 0
-179  180 0
 123  187 -188 0
-123  188 0
-187  188 0
 180 0
 188 0
